52989927728527806715010,14,1,2,01,8,1,2,03,2,1,2,06,1,1,2,03,7,1,2,07,10,1,2,08,11,1,2,011,7,1,2,02,11,1,2,013,3,1,2,03,12,1,2,03,8,1,2,05,13,1,2,02,8,1,2,014,14,1,2,014,13,1,2,04,12,1,2,012,15,1,2,09,8,1,2,015,13,1,2,06,6,1,2,011,5,1,2,015,13,1,2,04,9,1,2,08,2,1,2,011,6,1,2,06,7,1,2,09,13,1,2,014,7,1,2,013,1,1,2,015,4,1,2,02,13,1,2,05,14,1,2,06,7,1,2,02,2,1,2,010,15,1,2,05,10,1,2,01,8,1,2,012,6,1,2,013,13,1,2,013,13,1,2,06,15,1,2,09,5,1,2,011,15,1,2,05,10,1,2,05,3,1,2,06,2,1,2,03,15,1,2,012,10,1,2,07,13,1,2,0